牛客/2019牛客暑期多校训练营/数据/9_D_Knapsack Cryptosystem/10.in
36 2432974765208026
230907914048082 209113932377528 143731987365866 189391057214239 126080218709842 99602565725806 233967210464708 94824167723781 50505292706635 19411793265354 38986138075488 4035746236250 111735565715918 91165853110462 234401532824786 193152690573112 139312650251286 32061934223448 226549085692218 209435761309459 105873981173498 205552853451921 219895060851459 198527027739188 62663641408145 162767971875158 209864767788815 236061268720229 177507752450851 14310585422483 139396342372107 86350716619478 171044570511232 303881378822 41826280647872 124279841352053
